NAME:  vp6
TYPE: ATSP
COMMENT: 6 vp problem (Repetto)
DIMENSION:  5
EDGE_WEIGHT_TYPE: EXPLICIT
EDGE_WEIGHT_FORMAT: FULL_MATRIX
EDGE_WEIGHT_SECTION
0 71 67 62 60 
0 999 5 11 16 
0 5 999 7 12 
0 11 7 999 6 
0 16 12 6 999 
EOF